50 8
565 518
71 795
516 443
290 877
920 889
388 854
787 387
790 381
454 431
882 223
801 546
922 738
155 777
217 501
865 829
918 432
675 464
707 415
70 834
43 938
189 297
877 255
771 395
794 797
815 127
684 309
408 791
830 834
101 471
562 126
782 362
520 208
581 507
769 889
937 169
431 374
242 289
500 396
594 394
881 215
149 920
865 200
591 378
496 478
583 38
656 395
765 435
853 528
449 500
548 120
